p cnf 54 345
1 2 3 0
4 5 6 0
7 8 9 0
10 11 12 0
13 14 15 0
16 17 18 0
19 20 21 0
22 23 24 0
25 26 27 0
28 29 30 0
31 32 33 0
34 35 36 0
37 38 39 0
40 41 42 0
43 44 45 0
46 47 48 0
49 50 51 0
52 53 54 0
-1 -2 0
-1 -3 0
-2 -3 0
-4 -5 0
-4 -6 0
-5 -6 0
-7 -8 0
-7 -9 0
-8 -9 0
-10 -11 0
-10 -12 0
-11 -12 0
-13 -14 0
-13 -15 0
-14 -15 0
-16 -17 0
-16 -18 0
-17 -18 0
-19 -20 0
-19 -21 0
-20 -21 0
-22 -23 0
-22 -24 0
-23 -24 0
-25 -26 0
-25 -27 0
-26 -27 0
-28 -29 0
-28 -30 0
-29 -30 0
-31 -32 0
-31 -33 0
-32 -33 0
-34 -35 0
-34 -36 0
-35 -36 0
-37 -38 0
-37 -39 0
-38 -39 0
-40 -41 0
-40 -42 0
-41 -42 0
-43 -44 0
-43 -45 0
-44 -45 0
-46 -47 0
-46 -48 0
-47 -48 0
-49 -50 0
-49 -51 0
-50 -51 0
-52 -53 0
-52 -54 0
-53 -54 0
-1 -4 0
-2 -5 0
-3 -6 0
-1 -13 0
-2 -14 0
-3 -15 0
-1 -16 0
-2 -17 0
-3 -18 0
-1 -19 0
-2 -20 0
-3 -21 0
-1 -28 0
-2 -29 0
-3 -30 0
-1 -34 0
-2 -35 0
-3 -36 0
-1 -46 0
-2 -47 0
-3 -48 0
-1 -52 0
-2 -53 0
-3 -54 0
-4 -13 0
-5 -14 0
-6 -15 0
-4 -19 0
-5 -20 0
-6 -21 0
-4 -34 0
-5 -35 0
-6 -36 0
-4 -37 0
-5 -38 0
-6 -39 0
-4 -46 0
-5 -47 0
-6 -48 0
-4 -52 0
-5 -53 0
-6 -54 0
-7 -10 0
-8 -11 0
-9 -12 0
-7 -13 0
-8 -14 0
-9 -15 0
-7 -16 0
-8 -17 0
-9 -18 0
-7 -19 0
-8 -20 0
-9 -21 0
-7 -28 0
-8 -29 0
-9 -30 0
-7 -31 0
-8 -32 0
-9 -33 0
-7 -34 0
-8 -35 0
-9 -36 0
-7 -40 0
-8 -41 0
-9 -42 0
-7 -46 0
-8 -47 0
-9 -48 0
-7 -49 0
-8 -50 0
-9 -51 0
-7 -52 0
-8 -53 0
-9 -54 0
-10 -16 0
-11 -17 0
-12 -18 0
-10 -22 0
-11 -23 0
-12 -24 0
-10 -25 0
-11 -26 0
-12 -27 0
-10 -28 0
-11 -29 0
-12 -30 0
-10 -37 0
-11 -38 0
-12 -39 0
-10 -40 0
-11 -41 0
-12 -42 0
-10 -43 0
-11 -44 0
-12 -45 0
-13 -19 0
-14 -20 0
-15 -21 0
-13 -25 0
-14 -26 0
-15 -27 0
-13 -28 0
-14 -29 0
-15 -30 0
-13 -31 0
-14 -32 0
-15 -33 0
-13 -37 0
-14 -38 0
-15 -39 0
-13 -40 0
-14 -41 0
-15 -42 0
-13 -43 0
-14 -44 0
-15 -45 0
-13 -46 0
-14 -47 0
-15 -48 0
-13 -49 0
-14 -50 0
-15 -51 0
-13 -52 0
-14 -53 0
-15 -54 0
-16 -25 0
-17 -26 0
-18 -27 0
-16 -31 0
-17 -32 0
-18 -33 0
-16 -34 0
-17 -35 0
-18 -36 0
-16 -37 0
-17 -38 0
-18 -39 0
-16 -40 0
-17 -41 0
-18 -42 0
-16 -43 0
-17 -44 0
-18 -45 0
-16 -49 0
-17 -50 0
-18 -51 0
-16 -52 0
-17 -53 0
-18 -54 0
-19 -22 0
-20 -23 0
-21 -24 0
-19 -34 0
-20 -35 0
-21 -36 0
-19 -37 0
-20 -38 0
-21 -39 0
-19 -43 0
-20 -44 0
-21 -45 0
-19 -46 0
-20 -47 0
-21 -48 0
-22 -25 0
-23 -26 0
-24 -27 0
-22 -28 0
-23 -29 0
-24 -30 0
-22 -31 0
-23 -32 0
-24 -33 0
-22 -34 0
-23 -35 0
-24 -36 0
-22 -37 0
-23 -38 0
-24 -39 0
-22 -40 0
-23 -41 0
-24 -42 0
-22 -43 0
-23 -44 0
-24 -45 0
-22 -52 0
-23 -53 0
-24 -54 0
-25 -31 0
-26 -32 0
-27 -33 0
-25 -37 0
-26 -38 0
-27 -39 0
-25 -43 0
-26 -44 0
-27 -45 0
-25 -46 0
-26 -47 0
-27 -48 0
-25 -52 0
-26 -53 0
-27 -54 0
-28 -34 0
-29 -35 0
-30 -36 0
-28 -37 0
-29 -38 0
-30 -39 0
-28 -40 0
-29 -41 0
-30 -42 0
-28 -46 0
-29 -47 0
-30 -48 0
-28 -49 0
-29 -50 0
-30 -51 0
-28 -52 0
-29 -53 0
-30 -54 0
-31 -34 0
-32 -35 0
-33 -36 0
-31 -40 0
-32 -41 0
-33 -42 0
-31 -46 0
-32 -47 0
-33 -48 0
-31 -49 0
-32 -50 0
-33 -51 0
-34 -40 0
-35 -41 0
-36 -42 0
-34 -46 0
-35 -47 0
-36 -48 0
-34 -49 0
-35 -50 0
-36 -51 0
-37 -40 0
-38 -41 0
-39 -42 0
-37 -46 0
-38 -47 0
-39 -48 0
-37 -49 0
-38 -50 0
-39 -51 0
-37 -52 0
-38 -53 0
-39 -54 0
-40 -43 0
-41 -44 0
-42 -45 0
-43 -46 0
-44 -47 0
-45 -48 0
-43 -49 0
-44 -50 0
-45 -51 0
-43 -52 0
-44 -53 0
-45 -54 0
-46 -52 0
-47 -53 0
-48 -54 0
-49 -52 0
-50 -53 0
-51 -54 0
